Version identifier: 12.10.0.0 | 2019-11-26 | 843d4de
CPXPARAM_LPMethod                                4
CPXPARAM_Threads                                 1
CPXPARAM_SolutionType                            2
CPXPARAM_TimeLimit                               10000
Tried aggregator 1 time.
DUAL formed by presolve
LP Presolve eliminated 54214 rows and 0 columns.
Aggregator did 836 substitutions.
Reduced LP has 35950 rows, 424318 columns, and 915979 nonzeros.
Presolve time = 1.96 sec. (529.68 ticks)
Parallel mode: none, using 1 thread for barrier
Number of nonzeros in lower triangle of A*A' = 467073
Using Nested Dissection ordering
Total time for automatic ordering = 2.60 sec. (1210.99 ticks)
Summary statistics for Cholesky factor:
  Rows in Factor            = 35950
  Integer space required    = 254432
  Total non-zeros in factor = 5132629
  Total FP ops to factor    = 1890413527
 Itn      Primal Obj        Dual Obj  Prim Inf Upper Inf  Dual Inf Inf Ratio
   0   2.6114641e+09   1.4409343e+05  5.04e+07  0.00e+00  4.75e+08  1.00e+00
   1   2.8561751e+09   3.5987974e+07  4.95e+07  0.00e+00  4.70e+08  8.66e-01
   2   3.7751151e+09   2.1025695e+08  4.41e+07  0.00e+00  4.44e+08  5.89e-01
   3   3.0364823e+09   5.3231881e+08  3.38e+07  0.00e+00  3.10e+08  9.67e-01
   4   1.5461085e+09   7.3157621e+08  1.68e+07  0.00e+00  1.66e+08  2.49e+00
   5   3.7249049e+08   4.2408897e+08  3.86e+06  0.00e+00  3.81e+07  9.54e+04
   6   2.7317808e+08   3.2278501e+08  2.04e+06  0.00e+00  2.34e+07  7.34e+04
   7   2.1882020e+08   2.7307826e+08  1.01e+06  0.00e+00  1.60e+07  8.01e+04
   8   2.0629014e+08   2.3924495e+08  6.20e+05  0.00e+00  9.75e+06  9.79e+04
   9   1.9853819e+08   2.1987824e+08  3.13e+05  0.00e+00  5.86e+06  1.59e+05
  10   2.0007259e+08   2.1609719e+08  2.45e+05  0.00e+00  4.31e+06  2.30e+05
  11   2.0125386e+08   2.1383686e+08  1.63e+05  0.00e+00  3.53e+06  2.99e+05
  12   2.0336467e+08   2.1300500e+08  1.29e+05  0.00e+00  2.34e+06  5.21e+05
  13   2.1043174e+08   2.1517975e+08  8.10e+04  0.00e+00  1.79e+06  7.36e+05
  14   2.1521488e+08   2.1778384e+08  4.86e+04  0.00e+00  1.14e+06  1.39e+06
  15   2.1965518e+08   2.2134252e+08  2.49e+04  0.00e+00  5.21e+05  4.81e+06
  16   2.2310854e+08   2.2238096e+08  8.53e+03  0.00e+00  3.69e+05  7.63e+06
  17   2.2347773e+08   2.2381239e+08  7.12e+03  0.00e+00  1.91e+05  1.78e+07
  18   2.2452624e+08   2.2440266e+08  3.21e+03  0.00e+00  1.19e+05  3.42e+07
  19   2.2457232e+08   2.2475805e+08  3.06e+03  0.00e+00  8.21e+04  5.73e+07
  20   2.2510987e+08   2.2517165e+08  1.20e+03  0.00e+00  3.34e+04  1.68e+08
  21   2.2527531e+08   2.2520936e+08  5.37e+02  0.00e+00  2.81e+04  2.09e+08
  22   2.2530135e+08   2.2524093e+08  4.26e+02  0.00e+00  2.35e+04  2.64e+08
  23   2.2534272e+08   2.2528979e+08  2.90e+02  0.00e+00  1.74e+04  3.94e+08
  24   2.2537354e+08   2.2532455e+08  1.82e+02  0.00e+00  1.30e+04  5.84e+08
  25   2.2537958e+08   2.2533362e+08  1.60e+02  0.00e+00  1.18e+04  6.62e+08
  26   2.2538538e+08   2.2535012e+08  1.39e+02  0.00e+00  9.63e+03  8.63e+08
  27   2.2539629e+08   2.2537012e+08  9.95e+01  0.00e+00  7.02e+03  1.32e+09
  28   2.2540752e+08   2.2538475e+08  5.84e+01  0.00e+00  5.09e+03  2.01e+09
  29   2.2541123e+08   2.2539351e+08  4.39e+01  0.00e+00  3.91e+03  2.85e+09
  30   2.2541319e+08   2.2539754e+08  3.70e+01  0.00e+00  3.39e+03  3.43e+09
  31   2.2541558e+08   2.2540474e+08  2.88e+01  0.00e+00  2.47e+03  5.22e+09
  32   2.2541792e+08   2.2540844e+08  2.19e+01  0.00e+00  2.02e+03  6.73e+09
  33   2.2542074e+08   2.2541208e+08  1.33e+01  0.00e+00  1.58e+03  9.26e+09
  34   2.2542209e+08   2.2541693e+08  9.17e+00  0.00e+00  9.91e+02  1.75e+10
  35   2.2542328e+08   2.2541878e+08  5.80e+00  0.00e+00  7.73e+02  2.44e+10
  36   2.2542396e+08   2.2542006e+08  3.78e+00  0.00e+00  6.19e+02  3.27e+10
  37   2.2542445e+08   2.2542169e+08  2.35e+00  0.00e+00  4.25e+02  5.42e+10
  38   2.2542472e+08   2.2542311e+08  1.65e+00  0.00e+00  2.61e+02  1.05e+11
  39   2.2542516e+08   2.2542457e+08  6.44e-01  0.00e+00  9.76e+01  4.64e+11
  40   2.2542528e+08   2.2542489e+08  4.23e-01  0.00e+00  6.35e+01  7.82e+11
  41   2.2542544e+08   2.2542533e+08  1.06e-01  0.00e+00  1.69e+01  4.89e+12
  42   2.2542547e+08   2.2542539e+08  4.30e-02  0.00e+00  1.07e+01  7.92e+12
  43   2.2542549e+08   2.2542543e+08  1.12e-02  0.00e+00  5.95e+00  1.58e+13
  44   2.2542549e+08   2.2542548e+08  1.06e-02  0.00e+00  1.49e+00  1.63e+14
  45   2.2542549e+08   2.2542549e+08  2.70e-03  0.00e+00  3.74e-01  2.24e+14
Barrier time = 26.72 sec. (32280.44 ticks)

Total time on 1 threads = 26.72 sec. (32280.44 ticks)
Solver name: CPLEX
Solve time: 26.730120843
Termination status: OPTIMAL
Result count: 1
Primal status: FEASIBLE_POINT
Dual status: FEASIBLE_POINT
